Data path: /scratch/opt/lxu/CFLG/benchmarks/random_A
Instance: r_15_0.3_25.txt
Result path: /scratch/opt/lxu/CFLG/results/random_A
Solver: Gurobi
Time limit: 7200
Formulation: EFP
Cover: Large
julia --project=. src/main.jl /scratch/opt/lxu/CFLG/benchmarks/random_A r_15_0.3_25.txt /scratch/opt/lxu/CFLG/results/random_A Gurobi 7200 EFP Large
The latest version of Julia in the `release` channel is 1.11.5+0.x64.linux.gnu. You currently have `1.11.4+0.x64.linux.gnu` installed. Run:

  juliaup update

in your terminal shell to install Julia 1.11.5+0.x64.linux.gnu and update the `release` channel to that version.
/scratch/opt/lxu/CFLG/benchmarks/random_A Gurobi 7200.0 /scratch/opt/lxu/CFLG/results/random_A r_15_0.3_25.txt EFP Large
/scratch/opt/lxu/CFLG/benchmarks/random_A/r_15_0.3_25.txt

 read graph
data loaded

problem_graph/original graph: node: 15/15 edge: 25/25 dlt: 1.2163645456572976 break_avg_len: 0.6081822728286488 break_max_len: 0.9678305124544612elapsed CPU time: 0.027333 seconds
Set parameter TokenServer to value "solice01.zib.de"
Set parameter Threads to value 1
Set parameter OutputFlag to value 1
Set parameter MIPGap to value 0.0001
Set parameter MIPGapAbs to value 0.999998
Set parameter TimeLimit to value 7199.972667

 more cuts: false 1.2163645456572976 false
is_attach:falseformulation:EFP0 25 0

 model loaded

Gurobi Optimizer version 12.0.1 build v12.0.1rc0 (linux64 - "Debian GNU/Linux 12 (bookworm)")

CPU model: Intel(R) Xeon(R) Gold 5122 CPU @ 3.60GHz, instruction set [SSE2|AVX|AVX2|AVX512]
Thread count: 8 physical cores, 16 logical processors, using up to 1 threads

Non-default parameters:
TimeLimit  7199.972667
MIPGapAbs  0.999998
Threads  1

Optimize a model with 1084 rows, 569 columns and 3132 nonzeros
Model fingerprint: 0xccbd2653
Variable types: 65 continuous, 504 integer (504 binary)
Coefficient statistics:
  Matrix range     [1e-06, 2e+00]
  Objective range  [1e+00, 1e+00]
  Bounds range     [3e-01, 1e+00]
  RHS range        [3e-01, 2e+00]
Found heuristic solution: objective 6.0000000
Presolve removed 244 rows and 57 columns
Presolve time: 0.03s
Presolved: 840 rows, 512 columns, 4519 nonzeros
Variable types: 40 continuous, 472 integer (472 binary)

Root relaxation: objective 9.934811e-01, 444 iterations, 0.01 seconds (0.01 work units)

    Nodes    |    Current Node    |     Objective Bounds      |     Work
 Expl Unexpl |  Obj  Depth IntInf | Incumbent    BestBd   Gap | It/Node Time

     0     0    0.99348    0   81    6.00000    0.99348  83.4%     -    0s
H    0     0                       5.0000000    0.99348  80.1%     -    0s
H    0     0                       3.0000000    0.99348  66.9%     -    0s
     0     0    1.28436    0   95    3.00000    1.28436  57.2%     -    0s
     0     0    1.30757    0   99    3.00000    1.30757  56.4%     -    0s
     0     0    1.38833    0  101    3.00000    1.38833  53.7%     -    0s
     0     0    1.38951    0  106    3.00000    1.38951  53.7%     -    0s
     0     0    1.38951    0  107    3.00000    1.38951  53.7%     -    0s
     0     0    1.60000    0   92    3.00000    1.60000  46.7%     -    0s
     0     0    1.60000    0   92    3.00000    1.60000  46.7%     -    0s
     0     0    1.66667    0   80    3.00000    1.66667  44.4%     -    0s
     0     0    1.66667    0   55    3.00000    1.66667  44.4%     -    0s
     0     0    1.66667    0   76    3.00000    1.66667  44.4%     -    0s
     0     0    1.66667    0   52    3.00000    1.66667  44.4%     -    0s
     0     0    2.00000    0   50    3.00000    2.00000  33.3%     -    0s
     0     0    2.00000    0   45    3.00000    2.00000  33.3%     -    0s
     0     0    2.00000    0   45    3.00000    2.00000  33.3%     -    0s
     0     0    2.00000    0   43    3.00000    2.00000  33.3%     -    0s
     0     0    2.00000    0   42    3.00000    2.00000  33.3%     -    0s
     0     0    2.00000    0   35    3.00000    2.00000  33.3%     -    0s
     0     0    2.00000    0   32    3.00000    2.00000  33.3%     -    0s
     0     0    2.00000    0   30    3.00000    2.00000  33.3%     -    0s
     0     0    2.00000    0   30    3.00000    2.00000  33.3%     -    0s
     0     0    2.00000    0   36    3.00000    2.00000  33.3%     -    0s
     0     0    2.00000    0   32    3.00000    2.00000  33.3%     -    0s
     0     0    2.00000    0   38    3.00000    2.00000  33.3%     -    0s
     0     0    2.00000    0   37    3.00000    2.00000  33.3%     -    0s
     0     2    2.00000    0   37    3.00000    2.00000  33.3%     -    0s

Cutting planes:
  Gomory: 3
  Cover: 3
  Implied bound: 2
  MIR: 1
  Flow cover: 8
  GUB cover: 1
  Zero half: 3
  Relax-and-lift: 2

Explored 41 nodes (8377 simplex iterations) in 1.14 seconds (0.79 work units)
Thread count was 1 (of 16 available processors)

Solution count 4: 3 5 5 6 

Optimal solution found (tolerance 1.00e-04)
Best objective 3.000000000000e+00, best bound 3.000000000000e+00, gap 0.0000%

User-callback calls 1263, time in user-callback 0.01 sec

 sepatime0 0 0
3.0Stat(MathOptInterface.OPTIMAL, 3.0, 3.0, 0.0, 0.0, 0.027333, 1.142775058746338, 41, Main.CFLG.EFP, "", #undef)
